# Node Net
2459   1
2453   1
2478   1
1400   2
1101   2
2485   2
1050   3
800   3
1350   3
500   4
2492   4
 23   4
2500   5
 16   5
451   5
400   6
 50   6
 13   6
  7   7
 10   7
1950   7
  1   8
851   8
2489   9
2250   9
2495  10
501  10
750  11
1800  11
